* ENCODING=ISO-8859-1
NAME          ./miplib3/stein27
ROWS
 N  OBJ     
 G  A1      
 G  A2      
 G  A3      
 G  A4      
 G  A5      
 G  A6      
 G  A7      
 G  A8      
 G  A9      
 G  A10     
 G  A11     
 G  A12     
 G  A13     
 G  A14     
 G  A15     
 G  A16     
 G  A17     
 G  A18     
 G  A19     
 G  A20     
 G  A21     
 G  A22     
 G  A23     
 G  A24     
 G  A25     
 G  A26     
 G  A27     
 G  A28     
 G  A29     
 G  A30     
 G  A31     
 G  A32     
 G  A33     
 G  A34     
 G  A35     
 G  A36     
 G  A37     
 G  A38     
 G  A39     
 G  A40     
 G  A41     
 G  A42     
 G  A43     
 G  A44     
 G  A45     
 G  A46     
 G  A47     
 G  A48     
 G  A49     
 G  A50     
 G  A51     
 G  A52     
 G  A53     
 G  A54     
 G  A55     
 G  A56     
 G  A57     
 G  A58     
 G  A59     
 G  A60     
 G  A61     
 G  A62     
 G  A63     
 G  A64     
 G  A65     
 G  A66     
 G  A67     
 G  A68     
 G  A69     
 G  A70     
 G  A71     
 G  A72     
 G  A73     
 G  A74     
 G  A75     
 G  A76     
 G  A77     
 G  A78     
 G  A79     
 G  A80     
 G  A81     
 G  A82     
 G  A83     
 G  A84     
 G  A85     
 G  A86     
 G  A87     
 G  A88     
 G  A89     
 G  A90     
 G  A91     
 G  A92     
 G  A93     
 G  A94     
 G  A95     
 G  A96     
 G  A97     
 G  A98     
 G  A99     
 G  A100    
 G  A101    
 G  A102    
 G  A103    
 G  A104    
 G  A105    
 G  A106    
 G  A107    
 G  A108    
 G  A109    
 G  A110    
 G  A111    
 G  A112    
 G  A113    
 G  A114    
 G  A115    
 G  A116    
 G  A117    
 G  OB2     
COLUMNS
    MARK0000  'MARKER'                 'INTORG'
    0001      OBJ                             1
    0001      A2                              1
    0001      A3                              1
    0001      A7                              1
    0001      A10                             1
    0001      A37                             1
    0001      A38                             1
    0001      A39                             1
    0001      A40                             1
    0001      A41                             1
    0001      A42                             1
    0001      A43                             1
    0001      A44                             1
    0001      A45                             1
    0001      OB2                             1
    0002      OBJ                             1
    0002      A1                              1
    0002      A3                              1
    0002      A8                              1
    0002      A11                             1
    0002      A46                             1
    0002      A47                             1
    0002      A48                             1
    0002      A49                             1
    0002      A50                             1
    0002      A51                             1
    0002      A52                             1
    0002      A53                             1
    0002      A54                             1
    0002      OB2                             1
    0003      OBJ                             1
    0003      A1                              1
    0003      A2                              1
    0003      A9                              1
    0003      A12                             1
    0003      A55                             1
    0003      A56                             1
    0003      A57                             1
    0003      A58                             1
    0003      A59                             1
    0003      A60                             1
    0003      A61                             1
    0003      A62                             1
    0003      A63                             1
    0003      OB2                             1
    0004      OBJ                             1
    0004      A1                              1
    0004      A5                              1
    0004      A6                              1
    0004      A10                             1
    0004      A64                             1
    0004      A65                             1
    0004      A66                             1
    0004      A67                             1
    0004      A68                             1
    0004      A69                             1
    0004      A70                             1
    0004      A71                             1
    0004      A72                             1
    0004      OB2                             1
    0005      OBJ                             1
    0005      A2                              1
    0005      A4                              1
    0005      A6                              1
    0005      A11                             1
    0005      A73                             1
    0005      A74                             1
    0005      A75                             1
    0005      A76                             1
    0005      A77                             1
    0005      A78                             1
    0005      A79                             1
    0005      A80                             1
    0005      A81                             1
    0005      OB2                             1
    0006      OBJ                             1
    0006      A3                              1
    0006      A4                              1
    0006      A5                              1
    0006      A12                             1
    0006      A82                             1
    0006      A83                             1
    0006      A84                             1
    0006      A85                             1
    0006      A86                             1
    0006      A87                             1
    0006      A88                             1
    0006      A89                             1
    0006      A90                             1
    0006      OB2                             1
    0007      OBJ                             1
    0007      A4                              1
    0007      A8                              1
    0007      A9                              1
    0007      A10                             1
    0007      A91                             1
    0007      A92                             1
    0007      A93                             1
    0007      A94                             1
    0007      A95                             1
    0007      A96                             1
    0007      A97                             1
    0007      A98                             1
    0007      A99                             1
    0007      OB2                             1
    0008      OBJ                             1
    0008      A5                              1
    0008      A7                              1
    0008      A9                              1
    0008      A11                             1
    0008      A100                            1
    0008      A101                            1
    0008      A102                            1
    0008      A103                            1
    0008      A104                            1
    0008      A105                            1
    0008      A106                            1
    0008      A107                            1
    0008      A108                            1
    0008      OB2                             1
    0009      OBJ                             1
    0009      A6                              1
    0009      A7                              1
    0009      A8                              1
    0009      A12                             1
    0009      A109                            1
    0009      A110                            1
    0009      A111                            1
    0009      A112                            1
    0009      A113                            1
    0009      A114                            1
    0009      A115                            1
    0009      A116                            1
    0009      A117                            1
    0009      OB2                             1
    0010      OBJ                             1
    0010      A14                             1
    0010      A15                             1
    0010      A19                             1
    0010      A22                             1
    0010      A37                             1
    0010      A46                             1
    0010      A55                             1
    0010      A64                             1
    0010      A73                             1
    0010      A82                             1
    0010      A91                             1
    0010      A100                            1
    0010      A109                            1
    0010      OB2                             1
    0011      OBJ                             1
    0011      A13                             1
    0011      A15                             1
    0011      A20                             1
    0011      A23                             1
    0011      A38                             1
    0011      A47                             1
    0011      A56                             1
    0011      A65                             1
    0011      A74                             1
    0011      A83                             1
    0011      A92                             1
    0011      A101                            1
    0011      A110                            1
    0011      OB2                             1
    0012      OBJ                             1
    0012      A13                             1
    0012      A14                             1
    0012      A21                             1
    0012      A24                             1
    0012      A39                             1
    0012      A48                             1
    0012      A57                             1
    0012      A66                             1
    0012      A75                             1
    0012      A84                             1
    0012      A93                             1
    0012      A102                            1
    0012      A111                            1
    0012      OB2                             1
    0013      OBJ                             1
    0013      A13                             1
    0013      A17                             1
    0013      A18                             1
    0013      A22                             1
    0013      A40                             1
    0013      A49                             1
    0013      A58                             1
    0013      A67                             1
    0013      A76                             1
    0013      A85                             1
    0013      A94                             1
    0013      A103                            1
    0013      A112                            1
    0013      OB2                             1
    0014      OBJ                             1
    0014      A14                             1
    0014      A16                             1
    0014      A18                             1
    0014      A23                             1
    0014      A41                             1
    0014      A50                             1
    0014      A59                             1
    0014      A68                             1
    0014      A77                             1
    0014      A86                             1
    0014      A95                             1
    0014      A104                            1
    0014      A113                            1
    0014      OB2                             1
    0015      OBJ                             1
    0015      A15                             1
    0015      A16                             1
    0015      A17                             1
    0015      A24                             1
    0015      A42                             1
    0015      A51                             1
    0015      A60                             1
    0015      A69                             1
    0015      A78                             1
    0015      A87                             1
    0015      A96                             1
    0015      A105                            1
    0015      A114                            1
    0015      OB2                             1
    0016      OBJ                             1
    0016      A16                             1
    0016      A20                             1
    0016      A21                             1
    0016      A22                             1
    0016      A43                             1
    0016      A52                             1
    0016      A61                             1
    0016      A70                             1
    0016      A79                             1
    0016      A88                             1
    0016      A97                             1
    0016      A106                            1
    0016      A115                            1
    0016      OB2                             1
    0017      OBJ                             1
    0017      A17                             1
    0017      A19                             1
    0017      A21                             1
    0017      A23                             1
    0017      A44                             1
    0017      A53                             1
    0017      A62                             1
    0017      A71                             1
    0017      A80                             1
    0017      A89                             1
    0017      A98                             1
    0017      A107                            1
    0017      A116                            1
    0017      OB2                             1
    0018      OBJ                             1
    0018      A18                             1
    0018      A19                             1
    0018      A20                             1
    0018      A24                             1
    0018      A45                             1
    0018      A54                             1
    0018      A63                             1
    0018      A72                             1
    0018      A81                             1
    0018      A90                             1
    0018      A99                             1
    0018      A108                            1
    0018      A117                            1
    0018      OB2                             1
    0019      OBJ                             1
    0019      A26                             1
    0019      A27                             1
    0019      A31                             1
    0019      A34                             1
    0019      A37                             1
    0019      A51                             1
    0019      A59                             1
    0019      A70                             1
    0019      A75                             1
    0019      A83                             1
    0019      A94                             1
    0019      A108                            1
    0019      A116                            1
    0019      OB2                             1
    0020      OBJ                             1
    0020      A25                             1
    0020      A27                             1
    0020      A32                             1
    0020      A35                             1
    0020      A42                             1
    0020      A47                             1
    0020      A58                             1
    0020      A66                             1
    0020      A80                             1
    0020      A82                             1
    0020      A99                             1
    0020      A104                            1
    0020      A115                            1
    0020      OB2                             1
    0021      OBJ                             1
    0021      A25                             1
    0021      A26                             1
    0021      A33                             1
    0021      A36                             1
    0021      A41                             1
    0021      A49                             1
    0021      A57                             1
    0021      A65                             1
    0021      A73                             1
    0021      A90                             1
    0021      A98                             1
    0021      A106                            1
    0021      A114                            1
    0021      OB2                             1
    0022      OBJ                             1
    0022      A25                             1
    0022      A29                             1
    0022      A30                             1
    0022      A34                             1
    0022      A43                             1
    0022      A48                             1
    0022      A56                             1
    0022      A67                             1
    0022      A81                             1
    0022      A89                             1
    0022      A91                             1
    0022      A105                            1
    0022      A113                            1
    0022      OB2                             1
    0023      OBJ                             1
    0023      A26                             1
    0023      A28                             1
    0023      A30                             1
    0023      A35                             1
    0023      A39                             1
    0023      A53                             1
    0023      A55                             1
    0023      A72                             1
    0023      A77                             1
    0023      A88                             1
    0023      A96                             1
    0023      A101                            1
    0023      A112                            1
    0023      OB2                             1
    0024      OBJ                             1
    0024      A27                             1
    0024      A28                             1
    0024      A29                             1
    0024      A36                             1
    0024      A38                             1
    0024      A46                             1
    0024      A63                             1
    0024      A71                             1
    0024      A79                             1
    0024      A87                             1
    0024      A95                             1
    0024      A103                            1
    0024      A111                            1
    0024      OB2                             1
    0025      OBJ                             1
    0025      A28                             1
    0025      A32                             1
    0025      A33                             1
    0025      A34                             1
    0025      A40                             1
    0025      A54                             1
    0025      A62                             1
    0025      A64                             1
    0025      A78                             1
    0025      A86                             1
    0025      A97                             1
    0025      A102                            1
    0025      A110                            1
    0025      OB2                             1
    0026      OBJ                             1
    0026      A29                             1
    0026      A31                             1
    0026      A33                             1
    0026      A35                             1
    0026      A45                             1
    0026      A50                             1
    0026      A61                             1
    0026      A69                             1
    0026      A74                             1
    0026      A85                             1
    0026      A93                             1
    0026      A107                            1
    0026      A109                            1
    0026      OB2                             1
    0027      OBJ                             1
    0027      A30                             1
    0027      A31                             1
    0027      A32                             1
    0027      A36                             1
    0027      A44                             1
    0027      A52                             1
    0027      A60                             1
    0027      A68                             1
    0027      A76                             1
    0027      A84                             1
    0027      A92                             1
    0027      A100                            1
    0027      A117                            1
    0027      OB2                             1
    MARK0001  'MARKER'                 'INTEND'
RHS
    rhs       A1                              1
    rhs       A2                              1
    rhs       A3                              1
    rhs       A4                              1
    rhs       A5                              1
    rhs       A6                              1
    rhs       A7                              1
    rhs       A8                              1
    rhs       A9                              1
    rhs       A10                             1
    rhs       A11                             1
    rhs       A12                             1
    rhs       A13                             1
    rhs       A14                             1
    rhs       A15                             1
    rhs       A16                             1
    rhs       A17                             1
    rhs       A18                             1
    rhs       A19                             1
    rhs       A20                             1
    rhs       A21                             1
    rhs       A22                             1
    rhs       A23                             1
    rhs       A24                             1
    rhs       A25                             1
    rhs       A26                             1
    rhs       A27                             1
    rhs       A28                             1
    rhs       A29                             1
    rhs       A30                             1
    rhs       A31                             1
    rhs       A32                             1
    rhs       A33                             1
    rhs       A34                             1
    rhs       A35                             1
    rhs       A36                             1
    rhs       A37                             1
    rhs       A38                             1
    rhs       A39                             1
    rhs       A40                             1
    rhs       A41                             1
    rhs       A42                             1
    rhs       A43                             1
    rhs       A44                             1
    rhs       A45                             1
    rhs       A46                             1
    rhs       A47                             1
    rhs       A48                             1
    rhs       A49                             1
    rhs       A50                             1
    rhs       A51                             1
    rhs       A52                             1
    rhs       A53                             1
    rhs       A54                             1
    rhs       A55                             1
    rhs       A56                             1
    rhs       A57                             1
    rhs       A58                             1
    rhs       A59                             1
    rhs       A60                             1
    rhs       A61                             1
    rhs       A62                             1
    rhs       A63                             1
    rhs       A64                             1
    rhs       A65                             1
    rhs       A66                             1
    rhs       A67                             1
    rhs       A68                             1
    rhs       A69                             1
    rhs       A70                             1
    rhs       A71                             1
    rhs       A72                             1
    rhs       A73                             1
    rhs       A74                             1
    rhs       A75                             1
    rhs       A76                             1
    rhs       A77                             1
    rhs       A78                             1
    rhs       A79                             1
    rhs       A80                             1
    rhs       A81                             1
    rhs       A82                             1
    rhs       A83                             1
    rhs       A84                             1
    rhs       A85                             1
    rhs       A86                             1
    rhs       A87                             1
    rhs       A88                             1
    rhs       A89                             1
    rhs       A90                             1
    rhs       A91                             1
    rhs       A92                             1
    rhs       A93                             1
    rhs       A94                             1
    rhs       A95                             1
    rhs       A96                             1
    rhs       A97                             1
    rhs       A98                             1
    rhs       A99                             1
    rhs       A100                            1
    rhs       A101                            1
    rhs       A102                            1
    rhs       A103                            1
    rhs       A104                            1
    rhs       A105                            1
    rhs       A106                            1
    rhs       A107                            1
    rhs       A108                            1
    rhs       A109                            1
    rhs       A110                            1
    rhs       A111                            1
    rhs       A112                            1
    rhs       A113                            1
    rhs       A114                            1
    rhs       A115                            1
    rhs       A116                            1
    rhs       A117                            1
    rhs       OB2                            13
BOUNDS
 UP bnd       0001                            1
 UP bnd       0002                            1
 UP bnd       0003                            1
 UP bnd       0004                            1
 UP bnd       0005                            1
 UP bnd       0006                            1
 UP bnd       0007                            1
 UP bnd       0008                            1
 UP bnd       0009                            1
 UP bnd       0010                            1
 UP bnd       0011                            1
 UP bnd       0012                            1
 UP bnd       0013                            1
 UP bnd       0014                            1
 UP bnd       0015                            1
 UP bnd       0016                            1
 UP bnd       0017                            1
 UP bnd       0018                            1
 UP bnd       0019                            1
 UP bnd       0020                            1
 UP bnd       0021                            1
 UP bnd       0022                            1
 UP bnd       0023                            1
 UP bnd       0024                            1
 UP bnd       0025                            1
 UP bnd       0026                            1
 UP bnd       0027                            1
ENDATA
